p cnf 54 207
1 2 3 0
4 5 6 0
7 8 9 0
10 11 12 0
13 14 15 0
16 17 18 0
19 20 21 0
22 23 24 0
25 26 27 0
28 29 30 0
31 32 33 0
34 35 36 0
37 38 39 0
40 41 42 0
43 44 45 0
46 47 48 0
49 50 51 0
52 53 54 0
-1 -2 0
-1 -3 0
-2 -3 0
-4 -5 0
-4 -6 0
-5 -6 0
-7 -8 0
-7 -9 0
-8 -9 0
-10 -11 0
-10 -12 0
-11 -12 0
-13 -14 0
-13 -15 0
-14 -15 0
-16 -17 0
-16 -18 0
-17 -18 0
-19 -20 0
-19 -21 0
-20 -21 0
-22 -23 0
-22 -24 0
-23 -24 0
-25 -26 0
-25 -27 0
-26 -27 0
-28 -29 0
-28 -30 0
-29 -30 0
-31 -32 0
-31 -33 0
-32 -33 0
-34 -35 0
-34 -36 0
-35 -36 0
-37 -38 0
-37 -39 0
-38 -39 0
-40 -41 0
-40 -42 0
-41 -42 0
-43 -44 0
-43 -45 0
-44 -45 0
-46 -47 0
-46 -48 0
-47 -48 0
-49 -50 0
-49 -51 0
-50 -51 0
-52 -53 0
-52 -54 0
-53 -54 0
-1 -4 0
-2 -5 0
-3 -6 0
-1 -25 0
-2 -26 0
-3 -27 0
-1 -31 0
-2 -32 0
-3 -33 0
-1 -43 0
-2 -44 0
-3 -45 0
-1 -46 0
-2 -47 0
-3 -48 0
-4 -7 0
-5 -8 0
-6 -9 0
-4 -13 0
-5 -14 0
-6 -15 0
-4 -25 0
-5 -26 0
-6 -27 0
-4 -37 0
-5 -38 0
-6 -39 0
-4 -43 0
-5 -44 0
-6 -45 0
-4 -49 0
-5 -50 0
-6 -51 0
-7 -10 0
-8 -11 0
-9 -12 0
-7 -22 0
-8 -23 0
-9 -24 0
-7 -31 0
-8 -32 0
-9 -33 0
-7 -37 0
-8 -38 0
-9 -39 0
-7 -43 0
-8 -44 0
-9 -45 0
-10 -43 0
-11 -44 0
-12 -45 0
-10 -49 0
-11 -50 0
-12 -51 0
-13 -16 0
-14 -17 0
-15 -18 0
-13 -22 0
-14 -23 0
-15 -24 0
-13 -31 0
-14 -32 0
-15 -33 0
-13 -34 0
-14 -35 0
-15 -36 0
-13 -52 0
-14 -53 0
-15 -54 0
-16 -19 0
-17 -20 0
-18 -21 0
-16 -25 0
-17 -26 0
-18 -27 0
-16 -31 0
-17 -32 0
-18 -33 0
-16 -40 0
-17 -41 0
-18 -42 0
-16 -46 0
-17 -47 0
-18 -48 0
-19 -34 0
-20 -35 0
-21 -36 0
-19 -40 0
-20 -41 0
-21 -42 0
-19 -43 0
-20 -44 0
-21 -45 0
-22 -34 0
-23 -35 0
-24 -36 0
-22 -37 0
-23 -38 0
-24 -39 0
-22 -49 0
-23 -50 0
-24 -51 0
-22 -52 0
-23 -53 0
-24 -54 0
-25 -34 0
-26 -35 0
-27 -36 0
-28 -43 0
-29 -44 0
-30 -45 0
-31 -43 0
-32 -44 0
-33 -45 0
-31 -49 0
-32 -50 0
-33 -51 0
-34 -37 0
-35 -38 0
-36 -39 0
-34 -40 0
-35 -41 0
-36 -42 0
-37 -52 0
-38 -53 0
-39 -54 0
-43 -49 0
-44 -50 0
-45 -51 0
-46 -49 0
-47 -50 0
-48 -51 0
-49 -52 0
-50 -53 0
-51 -54 0
